(set-logic QF_SLIA)
(declare-fun var0 () String)
(assert (not (str.in_re var0 (re.++ ((_ re.loop 9 269) (re.++ (re.union (str.to_re "sfY") (re.union (str.to_re "\\v") (re.union (str.to_re "R") (str.to_re "T{6")))) (re.++ (re.union (str.to_re "9") (re.union (str.to_re "men") (re.union (str.to_re ";D`") (str.to_re "S")))) (re.++ (re.union (str.to_re "J") (re.union (str.to_re "gU") (re.union (str.to_re "e") (str.to_re "?")))) (re.union (str.to_re "n") (re.union (str.to_re "$qc") (re.union (str.to_re "-z") (str.to_re "*")))))))) (re.++ ((_ re.loop 16 997) (re.++ (re.union (str.to_re "r}") (re.union (str.to_re "uaF") (re.union (str.to_re "}bF") (str.to_re "9W")))) (re.++ (re.union (str.to_re "\\I3") (re.union (str.to_re "bo") (re.union (str.to_re "#)") (str.to_re "'")))) (re.++ (re.union (str.to_re "4{U") (re.union (str.to_re "93") (re.union (str.to_re "!L") (str.to_re "aDk")))) (re.union (str.to_re "DoE") (re.union (str.to_re ";") (re.union (str.to_re "w") (str.to_re "S")))))))) (re.++ ((_ re.loop 3 229) (re.++ (re.union (str.to_re "n@%") (re.union (str.to_re "2") (re.union (str.to_re "1v") (str.to_re "~$")))) (re.++ (re.union (str.to_re "i") (re.union (str.to_re "=q!") (re.union (str.to_re "3w") (str.to_re "f")))) (re.++ (re.union (str.to_re "Y3Z") (re.union (str.to_re "x8") (re.union (str.to_re "N%3") (str.to_re ".cQ")))) (re.union (str.to_re "a$;") (re.union (str.to_re "Q*F") (re.union (str.to_re "4V/") (str.to_re ")}9")))))))) ((_ re.loop 15 336) (re.++ (re.union (str.to_re "r6") (re.union (str.to_re "_V") (re.union (str.to_re "@V") (str.to_re "tb[")))) (re.++ (re.union (str.to_re "{w") (re.union (str.to_re "jnQ") (re.union (str.to_re "x") (str.to_re "M8E")))) (re.++ (re.union (str.to_re "s") (re.union (str.to_re "/k") (re.union (str.to_re "m2)") (str.to_re "B")))) (re.union (str.to_re "QK^") (re.union (str.to_re ";G(") (re.union (str.to_re "8g") (str.to_re "lj"))))))))))))))
(assert (not (str.in_re var0 (re.++ ((_ re.loop 16 587) (re.++ (re.union (str.to_re "'") (re.union (str.to_re "?Yj") (re.union (str.to_re "<0R") (str.to_re "ZP")))) (re.++ (re.union (str.to_re "!") (re.union (str.to_re "!bD") (re.union (str.to_re "&Ml") (str.to_re "q{H")))) (re.++ (re.union (str.to_re "&{") (re.union (str.to_re "f") (re.union (str.to_re "P1") (str.to_re "zh'")))) (re.union (str.to_re "#") (re.union (str.to_re ",") (re.union (str.to_re "vh") (str.to_re "+J9")))))))) (re.++ ((_ re.loop 0 392) (re.++ (re.union (str.to_re "Le9") (re.union (str.to_re "?s") (re.union (str.to_re "r6") (str.to_re "m~9")))) (re.++ (re.union (str.to_re "2F") (re.union (str.to_re "<S") (re.union (str.to_re "Yz") (str.to_re "em8")))) (re.++ (re.union (str.to_re "H3") (re.union (str.to_re "_r") (re.union (str.to_re "G9") (str.to_re "lO")))) (re.union (str.to_re "`@") (re.union (str.to_re "F") (re.union (str.to_re "v}E") (str.to_re "l2G")))))))) (re.++ ((_ re.loop 19 647) (re.++ (re.union (str.to_re "o\\S") (re.union (str.to_re ">d") (re.union (str.to_re "-A(") (str.to_re "3")))) (re.++ (re.union (str.to_re "|_<") (re.union (str.to_re "EZy") (re.union (str.to_re "uYL") (str.to_re "Tz\\")))) (re.++ (re.union (str.to_re "ip") (re.union (str.to_re "]PD") (re.union (str.to_re "i?x") (str.to_re "EUT")))) (re.union (str.to_re "A=") (re.union (str.to_re "@-6") (re.union (str.to_re "2^)") (str.to_re "x")))))))) ((_ re.loop 2 975) (re.++ (re.union (str.to_re "P") (re.union (str.to_re ")HI") (re.union (str.to_re "D") (str.to_re "Fy")))) (re.++ (re.union (str.to_re "=R1") (re.union (str.to_re "H") (re.union (str.to_re "2") (str.to_re "2vs")))) (re.++ (re.union (str.to_re "ym") (re.union (str.to_re "R") (re.union (str.to_re "65") (str.to_re "^f")))) (re.union (str.to_re "P:*") (re.union (str.to_re "8g@") (re.union (str.to_re "f") (str.to_re "'"))))))))))))))
(assert (not (str.in_re var0 (re.++ (re.* re.allchar) (re.++ (re.union (str.to_re "<") (re.union (str.to_re ">") (re.union (str.to_re "'") (re.union (str.to_re "\u0022") (str.to_re "&"))))) (re.* re.allchar))))))
(assert (<= 50 (str.len var0)))
(check-sat)
(get-model)
